
n_res = 4;
rcap = [38, 36, 489, 560];
rtype = [1, 1, 2, 2];
n_tasks = 50;
modes =  [{1, 2, 3, 4, 5, 6}, {7, 8, 9, 10, 11, 12}, {13, 14, 15, 16, 17, 18}, {19, 20, 21, 22, 23, 24}, {25, 26, 27, 28, 29, 30}, {31, 32, 33, 34, 35, 36}, {37, 38, 39, 40, 41, 42}, {43, 44, 45, 46, 47, 48}, {49, 50, 51, 52, 53, 54}, {55, 56, 57, 58, 59, 60}, {61, 62, 63, 64, 65, 66}, {67, 68, 69, 70, 71, 72}, {73, 74, 75, 76, 77, 78}, {79, 80, 81, 82, 83, 84}, {85, 86, 87, 88, 89, 90}, {91, 92, 93, 94, 95, 96}, {97, 98, 99, 100, 101, 102}, {103, 104, 105, 106, 107, 108}, {109, 110, 111, 112, 113, 114}, {115, 116, 117, 118, 119, 120}, {121, 122, 123, 124, 125, 126}, {127, 128, 129, 130, 131, 132}, {133, 134, 135, 136, 137, 138}, {139, 140, 141, 142, 143, 144}, {145, 146, 147, 148, 149, 150}, {151, 152, 153, 154, 155, 156}, {157, 158, 159, 160, 161, 162}, {163, 164, 165, 166, 167, 168}, {169, 170, 171, 172, 173, 174}, {175, 176, 177, 178, 179, 180}, {181, 182, 183, 184, 185, 186}, {187, 188, 189, 190, 191, 192}, {193, 194, 195, 196, 197, 198}, {199, 200, 201, 202, 203, 204}, {205, 206, 207, 208, 209, 210}, {211, 212, 213, 214, 215, 216}, {217, 218, 219, 220, 221, 222}, {223, 224, 225, 226, 227, 228}, {229, 230, 231, 232, 233, 234}, {235, 236, 237, 238, 239, 240}, {241, 242, 243, 244, 245, 246}, {247, 248, 249, 250, 251, 252}, {253, 254, 255, 256, 257, 258}, {259, 260, 261, 262, 263, 264}, {265, 266, 267, 268, 269, 270}, {271, 272, 273, 274, 275, 276}, {277, 278, 279, 280, 281, 282}, {283, 284, 285, 286, 287, 288}, {289, 290, 291, 292, 293, 294}, {295, 296, 297, 298, 299, 300}];
succ =  [{8, 6, 5, 4}, {5, 4}, {16, 10, 9}, {17, 16, 15, 13, 11}, {16, 15, 14, 10}, {15, 11, 10}, {15, 10}, {27, 22, 21, 18, 17, 16}, {21, 18, 15, 12}, {21, 19, 17, 12}, {27, 22, 21, 20, 18}, {29, 27, 25, 24, 22, 20}, {25, 22, 21, 20, 19}, {29, 25, 22, 20, 19}, {25, 24, 20, 19}, {25, 24, 20, 19}, {26, 25, 24, 23}, {26, 25, 24}, {32, 31, 30, 28, 26}, {30, 28, 23}, {38, 35, 33, 32, 30, 29}, {32, 31, 30, 26}, {36, 35, 34, 33, 32, 31}, {36, 35, 33, 32, 31}, {34, 31, 30}, {38, 36, 34, 33}, {41, 35, 32, 31}, {41, 38, 36, 35}, {41, 40, 36, 34}, {41, 40, 37, 36}, {49, 44, 39, 38}, {49, 48, 44, 42, 39}, {50, 49, 44, 41, 40}, {50, 48, 37}, {40, 37}, {49, 48, 46, 39}, {49, 47, 44, 43, 42}, {42, 40}, {50, 47, 43}, {48, 47, 45}, {48, 43}, {46, 45}, {45}, {46}, {}, {}, {}, {}, {}, {}];
n_opt = 300;
dur = [3, 6, 7, 8, 18, 20, 1, 2, 4, 5, 10, 20, 3, 6, 12, 15, 17, 20, 1, 10, 12, 13, 15, 16, 7, 9, 10, 11, 17, 18, 6, 12, 15, 16, 17, 18, 1, 5, 11, 13, 14, 20, 12, 13, 14, 17, 19, 20, 1, 2, 3, 4, 13, 16, 1, 2, 10, 12, 13, 15, 4, 7, 15, 16, 19, 20, 2, 5, 6, 9, 14, 17, 6, 7, 11, 12, 15, 18, 11, 12, 14, 16, 17, 18, 6, 8, 9, 12, 16, 19, 1, 2, 9, 13, 15, 19, 3, 6, 9, 10, 12, 16, 10, 11, 14, 15, 16, 20, 5, 6, 12, 14, 19, 20, 8, 12, 13, 14, 17, 20, 6, 11, 12, 13, 14, 15, 2, 4, 9, 16, 17, 20, 2, 9, 10, 11, 13, 20, 3, 7, 10, 14, 15, 17, 1, 3, 4, 17, 18, 19, 2, 3, 5, 6, 11, 16, 1, 5, 6, 8, 15, 18, 5, 8, 10, 11, 13, 14, 3, 6, 7, 10, 15, 19, 4, 5, 14, 17, 18, 20, 5, 11, 12, 13, 15, 19, 5, 7, 8, 16, 17, 18, 2, 4, 13, 15, 16, 19, 3, 4, 8, 9, 16, 19, 5, 7, 9, 10, 11, 12, 3, 4, 7, 12, 13, 14, 4, 6, 9, 11, 16, 17, 1, 3, 6, 14, 16, 18, 2, 3, 6, 7, 12, 16, 7, 11, 12, 14, 16, 18, 3, 5, 10, 11, 14, 19, 3, 5, 10, 11, 16, 20, 1, 2, 4, 9, 13, 19, 5, 7, 8, 11, 15, 19, 4, 5, 6, 9, 17, 20, 5, 10, 14, 17, 19, 20, 8, 9, 10, 11, 12, 13, 2, 8, 9, 12, 17, 18, 1, 3, 5, 7, 10, 13, 1, 5, 7, 10, 15, 20];
rreq = [|9, 9, 8, 6, 5, 3, 13, 12, 11, 10, 10, 9, 15, 12, 10, 8, 6, 1, 14, 14, 14, 14, 14, 14, 15, 14, 11, 10, 8, 5, 10, 10, 8, 7, 6, 3, 9, 8, 6, 6, 3, 3, 14, 12, 12, 10, 10, 9, 9, 8, 6, 6, 4, 4, 20, 19, 19, 19, 19, 19, 14, 10, 10, 7, 7, 4, 19, 18, 18, 18, 18, 18, 19, 19, 19, 18, 18, 18, 13, 11, 8, 7, 3, 2, 6, 6, 6, 5, 5, 5, 16, 14, 14, 13, 12, 11, 11, 10, 9, 9, 9, 8, 17, 15, 13, 13, 12, 11, 6, 5, 5, 4, 4, 4, 9, 9, 9, 9, 9, 9, 14, 13, 13, 12, 12, 11, 9, 7, 6, 6, 4, 4, 4, 4, 3, 3, 3, 2, 2, 1, 1, 1, 1, 1, 19, 16, 13, 9, 4, 4, 15, 15, 15, 14, 14, 14, 17, 16, 14, 11, 11, 7, 9, 7, 7, 6, 6, 5, 9, 9, 8, 8, 8, 7, 16, 13, 12, 11, 9, 7, 14, 12, 10, 8, 6, 5, 13, 11, 8, 7, 6, 3, 5, 4, 4, 4, 3, 3, 20, 16, 15, 12, 8, 6, 6, 6, 6, 6, 6, 6, 10, 7, 7, 4, 4, 2, 16, 14, 13, 9, 8, 6, 20, 18, 18, 17, 17, 16, 6, 5, 3, 2, 1, 1, 14, 13, 13, 12, 12, 11, 10, 9, 8, 8, 7, 6, 19, 17, 15, 12, 10, 9, 5, 4, 4, 4, 4, 4, 6, 5, 5, 5, 4, 4, 18, 17, 17, 17, 17, 17, 8, 8, 7, 6, 5, 5, 14, 13, 13, 12, 12, 12, 13, 13, 12, 10, 10, 8, 10, 10, 10, 9, 8, 8, 13, 12, 12, 12, 11, 10
 |7, 7, 7, 7, 6, 6, 18, 17, 16, 15, 14, 12, 12, 9, 7, 6, 4, 4, 19, 19, 19, 19, 19, 19, 19, 17, 14, 10, 6, 4, 19, 18, 16, 16, 14, 14, 5, 4, 4, 3, 2, 2, 10, 8, 7, 6, 6, 4, 8, 7, 6, 6, 4, 4, 19, 16, 12, 11, 9, 5, 17, 16, 14, 13, 12, 12, 16, 14, 13, 13, 12, 10, 10, 8, 6, 5, 2, 1, 14, 13, 10, 10, 9, 7, 4, 4, 4, 4, 4, 4, 18, 16, 15, 11, 9, 8, 18, 16, 12, 12, 8, 7, 19, 19, 19, 19, 18, 18, 19, 16, 11, 8, 7, 4, 13, 13, 13, 12, 11, 11, 10, 8, 7, 7, 5, 5, 17, 17, 17, 17, 17, 17, 19, 19, 17, 16, 16, 14, 12, 9, 8, 8, 5, 4, 20, 17, 17, 14, 13, 13, 6, 4, 4, 4, 3, 2, 1, 1, 1, 1, 1, 1, 16, 16, 14, 13, 12, 12, 19, 18, 16, 16, 13, 12, 12, 12, 11, 11, 10, 10, 8, 5, 4, 4, 2, 2, 10, 9, 9, 8, 7, 7, 1, 1, 1, 1, 1, 1, 16, 15, 14, 10, 8, 8, 7, 6, 4, 3, 3, 1, 20, 18, 16, 15, 13, 11, 19, 18, 16, 13, 12, 10, 4, 4, 4, 4, 3, 3, 20, 18, 18, 17, 16, 15, 4, 3, 3, 3, 2, 2, 16, 16, 16, 16, 15, 15, 20, 16, 14, 10, 7, 7, 15, 13, 12, 10, 8, 6, 10, 7, 7, 5, 5, 3, 10, 9, 9, 8, 8, 8, 4, 3, 3, 2, 2, 1, 16, 12, 10, 8, 4, 4, 8, 8, 6, 6, 4, 4, 5, 3, 3, 3, 1, 1, 13, 12, 11, 7, 5, 3
 |16, 14, 13, 12, 9, 7, 13, 12, 11, 9, 7, 6, 18, 12, 11, 7, 6, 2, 14, 14, 14, 14, 14, 14, 9, 8, 6, 5, 5, 4, 12, 11, 11, 10, 10, 9, 7, 6, 5, 5, 4, 4, 4, 4, 3, 2, 2, 1, 5, 5, 5, 5, 5, 5, 7, 6, 6, 6, 6, 6, 10, 10, 9, 7, 7, 5, 19, 18, 18, 17, 17, 16, 16, 15, 12, 10, 7, 3, 20, 18, 14, 12, 10, 9, 11, 10, 9, 8, 8, 7, 18, 16, 13, 10, 8, 6, 17, 13, 11, 9, 7, 5, 19, 19, 19, 19, 19, 19, 18, 16, 14, 12, 11, 11, 17, 14, 13, 10, 9, 8, 8, 7, 7, 7, 6, 5, 17, 16, 15, 13, 11, 10, 14, 11, 8, 6, 3, 2, 9, 8, 8, 8, 6, 6, 15, 15, 13, 13, 12, 11, 11, 11, 10, 9, 8, 6, 7, 6, 4, 4, 2, 1, 18, 15, 12, 12, 8, 6, 14, 12, 11, 9, 6, 3, 16, 13, 9, 8, 6, 4, 18, 13, 12, 9, 3, 2, 15, 12, 12, 11, 9, 7, 11, 8, 7, 4, 3, 1, 11, 9, 8, 7, 5, 4, 9, 9, 7, 6, 6, 4, 4, 4, 4, 4, 4, 4, 2, 1, 1, 1, 1, 1, 11, 10, 9, 8, 7, 7, 20, 15, 15, 11, 11, 8, 20, 18, 16, 16, 15, 13, 19, 17, 16, 15, 15, 13, 7, 7, 7, 6, 6, 6, 11, 10, 10, 10, 10, 10, 19, 14, 12, 10, 8, 6, 9, 9, 9, 9, 8, 8, 11, 11, 10, 10, 8, 8, 12, 11, 10, 10, 10, 9, 13, 13, 11, 7, 5, 3, 18, 15, 12, 10, 6, 5, 12, 12, 11, 10, 8, 8
 |13, 13, 13, 12, 12, 11, 10, 7, 7, 6, 4, 3, 19, 18, 15, 15, 11, 10, 11, 10, 9, 8, 7, 6, 18, 17, 17, 16, 15, 15, 13, 12, 12, 11, 11, 11, 16, 12, 8, 8, 4, 2, 18, 17, 15, 12, 11, 7, 18, 17, 18, 17, 17, 16, 15, 14, 13, 13, 11, 11, 18, 16, 13, 12, 12, 10, 18, 17, 16, 14, 14, 13, 13, 12, 11, 11, 9, 9, 11, 9, 8, 6, 3, 2, 14, 11, 11, 9, 8, 7, 18, 17, 17, 17, 16, 16, 18, 17, 17, 17, 17, 17, 14, 10, 9, 7, 6, 4, 10, 9, 7, 6, 4, 3, 17, 17, 16, 15, 14, 14, 14, 11, 11, 9, 8, 6, 13, 12, 10, 10, 7, 6, 19, 18, 17, 14, 14, 12, 5, 3, 3, 2, 2, 1, 8, 7, 6, 5, 3, 2, 16, 16, 12, 11, 8, 6, 14, 12, 10, 9, 5, 4, 15, 14, 14, 13, 12, 12, 7, 6, 6, 5, 4, 4, 6, 4, 4, 3, 2, 2, 16, 14, 14, 13, 11, 10, 11, 11, 9, 8, 7, 4, 18, 16, 15, 14, 13, 13, 6, 5, 4, 4, 4, 3, 19, 18, 17, 15, 14, 14, 9, 8, 8, 8, 8, 8, 14, 12, 11, 11, 9, 8, 20, 19, 19, 19, 19, 19, 15, 15, 13, 10, 9, 6, 12, 12, 12, 12, 12, 12, 18, 15, 15, 13, 11, 8, 11, 11, 10, 10, 9, 8, 17, 17, 16, 16, 15, 14, 15, 13, 10, 8, 7, 5, 10, 10, 8, 8, 7, 6, 15, 12, 12, 10, 8, 6, 15, 12, 12, 10, 6, 4, 17, 14, 14, 12, 10, 8, 16, 14, 10, 8, 6, 6, 20, 15, 13, 8, 4, 1|];